
Gurobi 11.0.1 (win64) logging started Wed May 15 12:30:35 2024

Set parameter LogFile to value "output/solver_log9.txt"
Gurobi Optimizer version 11.0.1 build v11.0.1rc0 (win64 - Windows 11.0 (22631.2))

CPU model: 11th Gen Intel(R) Core(TM) i7-1165G7 @ 2.80GHz, instruction set [SSE2|AVX|AVX2|AVX512]
Thread count: 4 physical cores, 8 logical processors, using up to 8 threads

Optimize a model with 2141 rows, 382 columns and 39365 nonzeros
Model fingerprint: 0xf4d34602
Variable types: 248 continuous, 134 integer (134 binary)
Coefficient statistics:
  Matrix range     [4e-01, 1e+05]
  Objective range  [1e+00, 1e+02]
  Bounds range     [1e+00, 1e+00]
  RHS range        [1e-02, 1e+05]

User MIP start produced solution with objective 75921 (0.00s)
User MIP start produced solution with objective 75921 (0.00s)
Loaded user MIP start with objective 75921

Presolve removed 99 rows and 98 columns
Presolve time: 0.05s
Presolved: 2042 rows, 284 columns, 38820 nonzeros
Variable types: 226 continuous, 58 integer (58 binary)

Root relaxation: objective 7.597668e+04, 539 iterations, 0.03 seconds (0.07 work units)

    Nodes    |    Current Node    |     Objective Bounds      |     Work
 Expl Unexpl |  Obj  Depth IntInf | Incumbent    BestBd   Gap | It/Node Time

     0     0 75976.6776    0    1 75921.0177 75976.6776  0.07%     -    0s

Explored 1 nodes (539 simplex iterations) in 0.21 seconds (0.32 work units)
Thread count was 8 (of 8 available processors)

Solution count 2: 75921 75921 

Optimal solution found (tolerance 1.00e-04)
Best objective 7.592101766688e+04, best bound 7.592244745002e+04, gap 0.0019%
